'hugeuniform102'
150 75 75
150
149
148
147
146
146
145
145
143
142
140
139
138
137
136
135
135
135
130
130
129
124
122
120
116
115
107
107
102
101
99
98
97
94
93
91
89
89
87
86
85
84
81
77
77
76
75
73
72
69
69
66
63
50
50
49
42
37
35
30
30
24
20
13
12
12
11
11
11
11
7
6
4
4
4
